NAME : 10_3_3_3_(35).dat
COMMENT : Henke, Speranza, Wäscher, 2015
TYPE : MCVRP
DIMENSION : 11
EDGE_WEIGHT_TYPE : DISTANCE_MATRIX
CAPACITY : 1000
VEHICLES : 2
PRODUCT TYPES : 3
COMPARTMENTS : 3
NODE_COORD_SECTION
1 50 50
2 27.45 53.28
3 82.18 7.49
4 76.46 0.44
5 15.35 86.24
6 38.83 29.64
7 48.6 31.59
8 1.62 33.58
9 29.14 0.58
10 10.49 14.63
11 55.45 61.81
DEMAND_SECTION
1 0 0 0
2 80 13 23
3 51 48 32
4 148 64 60
5 64 59 42
6 19 53 50
7 81 53 8
8 98 35 32
9 25 29 39
10 161 35 2
11 17 57 8
DEPOT_SECTION
1
EOF